
Gurobi 9.1.1 (mac64, Java) logging started Sat Feb 13 22:36:59 2021

Academic license - for non-commercial use only - expires 2021-03-04
Gurobi Optimizer version 9.1.1 build v9.1.1rc0 (mac64)
Thread count: 8 physical cores, 8 logical processors, using up to 39 threads

Warning: Thread count (39) is larger than processor count (8)
         Reduce the value of the Threads parameter to improve performance

Optimize a model with 200 rows, 3252 columns and 9826 nonzeros
Model fingerprint: 0xf9fced49
Variable types: 0 continuous, 3252 integer (3252 binary)
Coefficient statistics:
  Matrix range     [1e+00, 1e+00]
  Objective range  [2e+01, 9e+02]
  Bounds range     [1e+00, 1e+00]
  RHS range        [1e+00, 1e+00]
Found heuristic solution: objective 17511.900000
Presolve removed 0 rows and 284 columns
Presolve time: 0.01s
Presolved: 200 rows, 2968 columns, 9136 nonzeros
Found heuristic solution: objective 16710.900000
Variable types: 0 continuous, 2968 integer (2968 binary)

Root relaxation: objective 1.237549e+04, 693 iterations, 0.01 seconds

    Nodes    |    Current Node    |     Objective Bounds      |     Work
 Expl Unexpl |  Obj  Depth IntInf | Incumbent    BestBd   Gap | It/Node Time

     0     0 12375.4875    0  109 16710.9000 12375.4875  25.9%     -    0s
H    0     0                    13626.300000 12375.4875  9.18%     -    0s
H    0     0                    13626.100000 12375.4875  9.18%     -    0s
H    0     0                    13622.900000 12375.4875  9.16%     -    0s
H    0     0                    13622.400000 12375.4875  9.15%     -    0s
     0     0 12425.7932    0  113 13622.4000 12425.7932  8.78%     -    0s
H    0     0                    13117.399979 12425.7932  5.27%     -    0s
     0     0 12431.3560    0   92 13117.4000 12431.3560  5.23%     -    0s
     0     0 12435.4506    0   96 13117.4000 12435.4506  5.20%     -    0s
     0     0 12460.0667    0  111 13117.4000 12460.0667  5.01%     -    0s
H    0     0                    13017.700000 12460.0667  4.28%     -    0s
H    0     0                    12967.000000 12460.0667  3.91%     -    0s
     0     0 12467.4798    0  122 12967.0000 12467.4798  3.85%     -    0s
     0     0 12468.1426    0  123 12967.0000 12468.1426  3.85%     -    0s
     0     0 12478.2635    0  112 12967.0000 12478.2635  3.77%     -    0s
     0     0 12480.9163    0  118 12967.0000 12480.9163  3.75%     -    0s
     0     0 12481.3723    0   96 12967.0000 12481.3723  3.75%     -    0s
H    0     0                    12925.500000 12481.3723  3.44%     -    0s
     0     0 12487.7125    0  101 12925.5000 12487.7125  3.39%     -    0s
     0     0 12491.9136    0  124 12925.5000 12491.9136  3.35%     -    0s
     0     0 12499.6658    0  115 12925.5000 12499.6658  3.29%     -    0s
     0     0 12501.3790    0  100 12925.5000 12501.3790  3.28%     -    0s
     0     0 12501.5902    0   79 12925.5000 12501.5902  3.28%     -    0s
     0     0 12502.9848    0   93 12925.5000 12502.9848  3.27%     -    0s
     0     0 12503.0018    0  102 12925.5000 12503.0018  3.27%     -    0s
     0     0 12505.1289    0  126 12925.5000 12505.1289  3.25%     -    0s
H    0     0                    12922.000000 12505.1289  3.23%     -    0s
     0     0 12506.1551    0  114 12922.0000 12506.1551  3.22%     -    0s
     0     0 12506.2115    0  105 12922.0000 12506.2115  3.22%     -    0s
     0     0 12506.3519    0   86 12922.0000 12506.3519  3.22%     -    0s
H    0     0                    12918.700000 12506.3519  3.19%     -    0s
     0     0 12506.5597    0   79 12918.7000 12506.5597  3.19%     -    0s
     0     0 12506.5597    0   79 12918.7000 12506.5597  3.19%     -    0s
     0     2 12509.8597    0   79 12918.7000 12509.8597  3.16%     -    0s
H   31    64                    12771.399973 12512.9204  2.02%  51.0    1s
H   33    64                    12636.499983 12512.9654  0.98%  51.2    1s
H  116    58                    12634.600000 12517.2278  0.93%  34.6    1s
H  124    58                    12589.200000 12517.2278  0.57%  35.2    1s
* 3016   842              53    12587.700000 12531.2833  0.45%  20.5    2s
* 4579   962              32    12580.400000 12552.9000  0.22%  19.7    2s
* 5865    56              34    12579.300000 12570.2099  0.07%  19.1    2s

Cutting planes:
  Cover: 1
  MIR: 87
  Inf proof: 3
  Zero half: 67

Explored 6346 nodes (117058 simplex iterations) in 3.00 seconds
Thread count was 39 (of 8 available processors)

Solution count 10: 12579.3 12580.4 12587.7 ... 12925.5

Optimal solution found (tolerance 1.00e-04)
Best objective 1.257930000000e+04, best bound 1.257930000000e+04, gap 0.0000%
